Version identifier: 12.10.0.0 | 2019-11-26 | 843d4de
CPXPARAM_Read_DataCheck                          1
CPXPARAM_RandomSeed                              201903125
CPXPARAM_TimeLimit                               7200
Parallel mode: deterministic, using up to 8 threads for concurrent optimization:
 * Starting dual Simplex on 1 thread...
 * Starting Barrier on 6 threads...
 * Starting primal Simplex on 1 thread...
Tried aggregator 1 time.
No LP presolve or aggregator reductions.
Presolve time = 0.01 sec. (5.87 ticks)

Iteration log . . .
Iteration:     1   Dual objective     =          1223.000000
Perturbation started.
Iteration:   101   Dual objective     =          1223.000000
Iteration:   238   Dual objective     =          1223.029610
Iteration:   394   Dual objective     =          1223.063908
Iteration:   623   Dual objective     =          1223.063913
Iteration:   855   Dual objective     =          1223.063916
Iteration:  1079   Dual objective     =          1223.063919
Iteration:  1309   Dual objective     =          1223.063922
Iteration:  1535   Dual objective     =          1223.063924
Iteration:  1762   Dual objective     =          1223.063925
Iteration:  1983   Dual objective     =          1223.063926
Iteration:  2222   Dual objective     =          1223.063927
Iteration:  2461   Dual objective     =          1223.063927
Removing perturbation.

Dual simplex solved model.

